problem_generation/data/GISP/train/er_n=68_m=1362_p=0.60_SET2_setparam=100.00_alpha=0.50_209.sol
objective value:                                 1270
x2                                                  1 	(obj:100)
x4                                                  1 	(obj:100)
x5                                                  1 	(obj:100)
x8                                                  1 	(obj:100)
x10                                                 1 	(obj:100)
x13                                                 1 	(obj:100)
x20                                                 1 	(obj:100)
x24                                                 1 	(obj:100)
x37                                                 1 	(obj:100)
x50                                                 1 	(obj:100)
x59                                                 1 	(obj:100)
x62                                                 1 	(obj:100)
x64                                                 1 	(obj:100)
y2_13                                               1 	(obj:-1)
y62_64                                              1 	(obj:-1)
y13_64                                              1 	(obj:-1)
y24_64                                              1 	(obj:-1)
y5_50                                               1 	(obj:-1)
y20_62                                              1 	(obj:-1)
y24_59                                              1 	(obj:-1)
y5_8                                                1 	(obj:-1)
y20_37                                              1 	(obj:-1)
y37_62                                              1 	(obj:-1)
y10_62                                              1 	(obj:-1)
y4_5                                                1 	(obj:-1)
y5_62                                               1 	(obj:-1)
y10_24                                              1 	(obj:-1)
y24_62                                              1 	(obj:-1)
y10_37                                              1 	(obj:-1)
y20_64                                              1 	(obj:-1)
y50_64                                              1 	(obj:-1)
y2_5                                                1 	(obj:-1)
y50_59                                              1 	(obj:-1)
y8_62                                               1 	(obj:-1)
y13_24                                              1 	(obj:-1)
y4_64                                               1 	(obj:-1)
y24_37                                              1 	(obj:-1)
y8_20                                               1 	(obj:-1)
y5_13                                               1 	(obj:-1)
y8_24                                               1 	(obj:-1)
y37_59                                              1 	(obj:-1)
y10_64                                              1 	(obj:-1)
y10_59                                              1 	(obj:-1)
